(declare-fun temp44151_1 () (_ BitVec 64))
(declare-fun temp44151_2 () (_ BitVec 64))
(declare-fun var77740 () (_ BitVec 64))
(declare-fun k!0 () Bool)
(declare-fun ARGNAME_input_1_NAMEEND_DIM () (_ BitVec 64))
(declare-fun ARGNAME_data_format_NAMEEND_STRFMT () (_ BitVec 64))
(declare-fun temp44151_3 () (_ BitVec 64))
(declare-fun ARGNAME_input_2_NAMEEND_DIM () (_ BitVec 64))
(declare-fun var77770 () (_ BitVec 64))
(declare-fun temp44151_4 () (_ BitVec 64))
(declare-fun temp44151_5 () (_ BitVec 64))
(declare-fun ARGNAME_input_1_NAMEEND_DIMSIZE
             ()
             (Array (_ BitVec 64) (_ BitVec 64)))
(declare-fun temp44151_6 () (_ BitVec 64))
(declare-fun temp44151_7 () (_ BitVec 64))
(declare-fun temp44151_8 () (_ BitVec 64))
(declare-fun temp44151_9 () (_ BitVec 64))
(declare-fun temp44151_10 () (_ BitVec 64))
(declare-fun temp44151_11 () (_ BitVec 64))
(declare-fun temp44151_12 () (_ BitVec 64))
(declare-fun temp44151_13 () (_ BitVec 64))
(declare-fun temp44151_14 () (_ BitVec 64))
(declare-fun temp44151_15 () (_ BitVec 64))
(declare-fun temp44151_16 () (_ BitVec 64))
(declare-fun temp44151_17 () (_ BitVec 64))
(declare-fun temp44151_18 () (_ BitVec 64))
(declare-fun var77799 () (_ BitVec 64))
(declare-fun temp44151_19 () (_ BitVec 64))
(declare-fun ARGNAME_input_2_NAMEEND_DIMSIZE
             ()
             (Array (_ BitVec 64) (_ BitVec 64)))
(declare-fun temp44151_20 () (_ BitVec 64))
(declare-fun temp44151_21 () (_ BitVec 64))
(declare-fun temp44151_22 () (_ BitVec 64))
(declare-fun temp44151_23 () (_ BitVec 64))
(declare-fun temp44151_24 () (_ BitVec 64))
(declare-fun temp44151_25 () (_ BitVec 64))
(declare-fun temp44151_26 () (_ BitVec 64))
(declare-fun temp44151_27 () (_ BitVec 64))
(declare-fun temp44151_28 () (_ BitVec 64))
(declare-fun temp44151_29 () (_ BitVec 64))
(declare-fun temp44151_30 () (_ BitVec 64))
(declare-fun temp44151_31 () (_ BitVec 64))
(declare-fun temp44151_32 () (_ BitVec 64))
(declare-fun var77832 () (_ BitVec 64))
(declare-fun temp44151_33 () (_ BitVec 64))
(declare-fun temp44151_34 () (_ BitVec 64))
(declare-fun var77833 () (_ BitVec 64))
(declare-fun var77834 () (_ BitVec 64))
(declare-fun temp44151_35 () (_ BitVec 64))
(declare-fun temp44151_36 () (_ BitVec 64))
(declare-fun var275510 () (_ BitVec 64))
(declare-fun temp44151_37 () (_ BitVec 64))
(declare-fun var275528 () (_ BitVec 64))
(declare-fun temp44151_38 () (_ BitVec 64))
(declare-fun temp44151_40 () (_ BitVec 64))
(declare-fun temp44151_39 () (_ BitVec 64))
(declare-fun temp44151_42 () (_ BitVec 64))
(declare-fun temp44151_41 () (_ BitVec 64))
(declare-fun temp44151_43 () (_ BitVec 64))
(declare-fun var406582 () (_ BitVec 64))
(declare-fun temp44151_44 () (_ BitVec 64))
(declare-fun var406600 () (_ BitVec 64))
(declare-fun temp44151_45 () (_ BitVec 64))
(declare-fun temp44151_46 () (_ BitVec 64))
(declare-fun var537654 () (_ BitVec 64))
(declare-fun temp44151_47 () (_ BitVec 64))
(declare-fun var537672 () (_ BitVec 64))
(declare-fun temp44151_48 () (_ BitVec 64))
(declare-fun temp44151_50 () (_ BitVec 64))
(declare-fun temp44151_49 () (_ BitVec 64))
(declare-fun temp44151_52 () (_ BitVec 64))
(declare-fun temp44151_51 () (_ BitVec 64))
(declare-fun temp44151_54 () (_ BitVec 64))
(declare-fun temp44151_53 () (_ BitVec 64))
(declare-fun temp44151_56 () (_ BitVec 64))
(declare-fun temp44151_55 () (_ BitVec 64))
(declare-fun temp44151_57 () (_ BitVec 64))
(declare-fun var795723 () (_ BitVec 64))
(declare-fun var795702 () (_ BitVec 64))
(declare-fun var730134 () (_ BitVec 64))
(declare-fun temp44151_58 () (_ BitVec 64))
(declare-fun temp44151_59 () (_ BitVec 64))
(declare-fun var861259 () (_ BitVec 64))
(declare-fun var861238 () (_ BitVec 64))
(declare-fun var730144 () (_ BitVec 64))
(declare-fun temp44151_60 () (_ BitVec 64))
(declare-fun temp44151_61 () (_ BitVec 64))
(declare-fun var926795 () (_ BitVec 64))
(declare-fun var926774 () (_ BitVec 64))
(declare-fun var730147 () (_ BitVec 64))
(declare-fun temp44151_62 () (_ BitVec 64))
(declare-fun temp44151_63 () (_ BitVec 64))
(declare-fun var1123378 () (_ BitVec 64))
(declare-fun temp44151_64 () (_ BitVec 64))
(declare-fun var1188914 () (_ BitVec 64))
(declare-fun temp44151_65 () (_ BitVec 64))
(declare-fun var1254450 () (_ BitVec 64))
(declare-fun temp44151_66 () (_ BitVec 64))
(declare-fun var78184 () (_ BitVec 64))
(assert (or (= ARGNAME_data_format_NAMEEND_STRFMT #x0000000000000000)
    (= ARGNAME_data_format_NAMEEND_STRFMT #x0000000000000001)
    (= ARGNAME_data_format_NAMEEND_STRFMT #x0000000000000002)
    (= ARGNAME_data_format_NAMEEND_STRFMT #x0000000000000003)
    (= ARGNAME_data_format_NAMEEND_STRFMT #x0000000000000004)
    (= ARGNAME_data_format_NAMEEND_STRFMT #x0000000000000005)))
(assert (= temp44151_1 #x0000000000000005))
(assert (= var77740
   (ite (= ARGNAME_input_1_NAMEEND_DIM temp44151_1)
        #x0000000000000001
        #x0000000000000000)))
(assert (= temp44151_2 #x0000000000000001))
(assert (= var77740 temp44151_2))
(assert (= temp44151_3 #x0000000000000005))
(assert (= var77770
   (ite (= ARGNAME_input_2_NAMEEND_DIM temp44151_3)
        #x0000000000000001
        #x0000000000000000)))
(assert (= temp44151_4 #x0000000000000001))
(assert (= var77770 temp44151_4))
(assert (= temp44151_5 #x0000000000000000))
(assert (= temp44151_6 (select ARGNAME_input_1_NAMEEND_DIMSIZE temp44151_5)))
(assert (= temp44151_7 #x0000000000000001))
(assert (= temp44151_8 (select ARGNAME_input_1_NAMEEND_DIMSIZE temp44151_7)))
(assert (= temp44151_9 #x0000000000000002))
(assert (= temp44151_10 (select ARGNAME_input_1_NAMEEND_DIMSIZE temp44151_9)))
(assert (= temp44151_11 #x0000000000000003))
(assert (= temp44151_12 (select ARGNAME_input_1_NAMEEND_DIMSIZE temp44151_11)))
(assert (= temp44151_13 #x0000000000000004))
(assert (= temp44151_14 (select ARGNAME_input_1_NAMEEND_DIMSIZE temp44151_13)))
(assert (= temp44151_15 #x0000000000000005))
(assert (= temp44151_16 (select ARGNAME_input_1_NAMEEND_DIMSIZE temp44151_15)))
(assert (= temp44151_17 #x0000000000000003))
(assert (= temp44151_18 (select ARGNAME_input_1_NAMEEND_DIMSIZE temp44151_17)))
(assert (= var77799 temp44151_18))
(assert (= temp44151_19 #x0000000000000000))
(assert (= temp44151_20 (select ARGNAME_input_2_NAMEEND_DIMSIZE temp44151_19)))
(assert (= temp44151_21 #x0000000000000001))
(assert (= temp44151_22 (select ARGNAME_input_2_NAMEEND_DIMSIZE temp44151_21)))
(assert (= temp44151_23 #x0000000000000002))
(assert (= temp44151_24 (select ARGNAME_input_2_NAMEEND_DIMSIZE temp44151_23)))
(assert (= temp44151_25 #x0000000000000003))
(assert (= temp44151_26 (select ARGNAME_input_2_NAMEEND_DIMSIZE temp44151_25)))
(assert (= temp44151_27 #x0000000000000004))
(assert (= temp44151_28 (select ARGNAME_input_2_NAMEEND_DIMSIZE temp44151_27)))
(assert (= temp44151_29 #x0000000000000005))
(assert (= temp44151_30 (select ARGNAME_input_2_NAMEEND_DIMSIZE temp44151_29)))
(assert (= temp44151_31 #x0000000000000004))
(assert (= temp44151_32 (select ARGNAME_input_2_NAMEEND_DIMSIZE temp44151_31)))
(assert (= var77832 temp44151_32))
(assert (= temp44151_33 #x0000000000000004))
(assert (= temp44151_34 (select ARGNAME_input_1_NAMEEND_DIMSIZE temp44151_33)))
(assert (= var77833 temp44151_34))
(assert (= var77834 (ite (= var77832 var77833) #x0000000000000001 #x0000000000000000)))
(assert (= temp44151_35 #x0000000000000001))
(assert (= var77834 temp44151_35))
(assert (= temp44151_36 #x0000000000000001))
(assert (= var275510 temp44151_36))
(assert (= temp44151_37 #x0000000000000001))
(assert (= var275528
   (ite (bvslt var275510 temp44151_37) #x0000000000000001 #x0000000000000000)))
(assert (= temp44151_38 #x0000000000000000))
(assert (= var275528 temp44151_38))
(assert (= temp44151_40 #x0000000000000000))
(assert (= temp44151_39 temp44151_40))
(assert (= temp44151_42 #x0000000000000000))
(assert (= temp44151_41 temp44151_42))
(assert (= temp44151_43 #x0000000000000001))
(assert (= var406582 temp44151_43))
(assert (= temp44151_44 #x0000000000000001))
(assert (= var406600
   (ite (bvslt var406582 temp44151_44) #x0000000000000001 #x0000000000000000)))
(assert (= temp44151_45 #x0000000000000000))
(assert (= var406600 temp44151_45))
(assert (= temp44151_46 #x0000000000000001))
(assert (= var537654 temp44151_46))
(assert (= temp44151_47 #x0000000000000001))
(assert (= var537672
   (ite (bvslt var537654 temp44151_47) #x0000000000000001 #x0000000000000000)))
(assert (= temp44151_48 #x0000000000000000))
(assert (= var537672 temp44151_48))
(assert (= temp44151_50 #x0000000000000000))
(assert (= temp44151_49 temp44151_50))
(assert (= temp44151_52 #x00000000000000ff))
(assert (= temp44151_51 temp44151_52))
(assert (= temp44151_54 #x00000000000000ff))
(assert (= temp44151_53 temp44151_54))
(assert (= temp44151_56 #x00000000000000ff))
(assert (= temp44151_55 temp44151_56))
(assert (= temp44151_57 #x0000000000000000))
(assert (= var795723 temp44151_57))
(assert (= var795702 var795723))
(assert (= var730134 var795702))
(assert (= temp44151_58 #x0000000000000000))
(assert (= var730134 temp44151_58))
(assert (= temp44151_59 #x0000000000000000))
(assert (= var861259 temp44151_59))
(assert (= var861238 var861259))
(assert (= var730144 var861238))
(assert (= temp44151_60 #x0000000000000000))
(assert (= var730144 temp44151_60))
(assert (= temp44151_61 #x0000000000000000))
(assert (= var926795 temp44151_61))
(assert (= var926774 var926795))
(assert (= var730147 var926774))
(assert (= temp44151_62 #x0000000000000000))
(assert (= var730147 temp44151_62))
(assert (= temp44151_63 #x0000000000008000))
(assert (= var1123378 temp44151_63))
(assert (= temp44151_64 #x0000000000040000))
(assert (= var1188914 temp44151_64))
(assert (= temp44151_65 #x0000000000200000))
(assert (= var1254450 temp44151_65))
(assert (= temp44151_66 #x0000000000000001))
(assert (= var78184 temp44151_66))
(model-add temp44151_1 () (_ BitVec 64) #x0000000000000005)
(model-add temp44151_2 () (_ BitVec 64) #x0000000000000001)
(model-add var77740 () (_ BitVec 64) #x0000000000000001)
(model-del k!0)
(model-add ARGNAME_input_1_NAMEEND_DIM
           ()
           (_ BitVec 64)
           (ite k!0 #x0000000000000005 (bvnot #x0000000000000005)))

